1067
911
81
299
452
597
42
64
173
559
4864
445
168
34
116
26763
8686
388
1581
1742
295
1077
212
92
1494
506
595
602
4836
45
72
416
27
1008
1728
60
300
646
654
938
9184
493
782
659
261
472
186
179
414
226
9270
8456
50
1321
751
458
155
152
47
1574
383
167
228
52
384
214
231
5660
80
275
18
652
96
2678
74
2150
25
555
64
290
971
13175
677
2027
29
145
140
790
138
50
4999
68
3028
754
46
914
437
785
284
594
